letting numberCities be 29
letting distances be function (
(1,1) --> 0,
(1,2) --> 107,
(1,3) --> 241,
(1,4) --> 190,
(1,5) --> 124,
(1,6) --> 80,
(1,7) --> 316,
(1,8) --> 76,
(1,9) --> 152,
(1,10) --> 157,
(1,11) --> 283,
(1,12) --> 133,
(1,13) --> 113,
(1,14) --> 297,
(1,15) --> 228,
(1,16) --> 129,
(1,17) --> 348,
(1,18) --> 276,
(1,19) --> 188,
(1,20) --> 150,
(1,21) --> 65,
(1,22) --> 341,
(1,23) --> 184,
(1,24) --> 67,
(1,25) --> 221,
(1,26) --> 169,
(1,27) --> 108,
(1,28) --> 45,
(1,29) --> 167,
(2,1) --> 107,
(2,2) --> 0,
(2,3) --> 148,
(2,4) --> 137,
(2,5) --> 88,
(2,6) --> 127,
(2,7) --> 336,
(2,8) --> 183,
(2,9) --> 134,
(2,10) --> 95,
(2,11) --> 254,
(2,12) --> 180,
(2,13) --> 101,
(2,14) --> 234,
(2,15) --> 175,
(2,16) --> 176,
(2,17) --> 265,
(2,18) --> 199,
(2,19) --> 182,
(2,20) --> 67,
(2,21) --> 42,
(2,22) --> 278,
(2,23) --> 271,
(2,24) --> 146,
(2,25) --> 251,
(2,26) --> 105,
(2,27) --> 191,
(2,28) --> 139,
(2,29) --> 79,
(3,1) --> 241,
(3,2) --> 148,
(3,3) --> 0,
(3,4) --> 374,
(3,5) --> 171,
(3,6) --> 259,
(3,7) --> 509,
(3,8) --> 317,
(3,9) --> 217,
(3,10) --> 232,
(3,11) --> 491,
(3,12) --> 312,
(3,13) --> 280,
(3,14) --> 391,
(3,15) --> 412,
(3,16) --> 349,
(3,17) --> 422,
(3,18) --> 356,
(3,19) --> 355,
(3,20) --> 204,
(3,21) --> 182,
(3,22) --> 435,
(3,23) --> 417,
(3,24) --> 292,
(3,25) --> 424,
(3,26) --> 116,
(3,27) --> 337,
(3,28) --> 273,
(3,29) --> 77,
(4,1) --> 190,
(4,2) --> 137,
(4,3) --> 374,
(4,4) --> 0,
(4,5) --> 202,
(4,6) --> 234,
(4,7) --> 222,
(4,8) --> 192,
(4,9) --> 248,
(4,10) --> 42,
(4,11) --> 117,
(4,12) --> 287,
(4,13) --> 79,
(4,14) --> 107,
(4,15) --> 38,
(4,16) --> 121,
(4,17) --> 152,
(4,18) --> 86,
(4,19) --> 68,
(4,20) --> 70,
(4,21) --> 137,
(4,22) --> 151,
(4,23) --> 239,
(4,24) --> 135,
(4,25) --> 137,
(4,26) --> 242,
(4,27) --> 165,
(4,28) --> 228,
(4,29) --> 205,
(5,1) --> 124,
(5,2) --> 88,
(5,3) --> 171,
(5,4) --> 202,
(5,5) --> 0,
(5,6) --> 61,
(5,7) --> 392,
(5,8) --> 202,
(5,9) --> 46,
(5,10) --> 160,
(5,11) --> 319,
(5,12) --> 112,
(5,13) --> 163,
(5,14) --> 322,
(5,15) --> 240,
(5,16) --> 232,
(5,17) --> 314,
(5,18) --> 287,
(5,19) --> 238,
(5,20) --> 155,
(5,21) --> 65,
(5,22) --> 366,
(5,23) --> 300,
(5,24) --> 175,
(5,25) --> 307,
(5,26) --> 57,
(5,27) --> 220,
(5,28) --> 121,
(5,29) --> 97,
(6,1) --> 80,
(6,2) --> 127,
(6,3) --> 259,
(6,4) --> 234,
(6,5) --> 61,
(6,6) --> 0,
(6,7) --> 386,
(6,8) --> 141,
(6,9) --> 72,
(6,10) --> 167,
(6,11) --> 351,
(6,12) --> 55,
(6,13) --> 157,
(6,14) --> 331,
(6,15) --> 272,
(6,16) --> 226,
(6,17) --> 362,
(6,18) --> 296,
(6,19) --> 232,
(6,20) --> 164,
(6,21) --> 85,
(6,22) --> 375,
(6,23) --> 249,
(6,24) --> 147,
(6,25) --> 301,
(6,26) --> 118,
(6,27) --> 188,
(6,28) --> 60,
(6,29) --> 185,
(7,1) --> 316,
(7,2) --> 336,
(7,3) --> 509,
(7,4) --> 222,
(7,5) --> 392,
(7,6) --> 386,
(7,7) --> 0,
(7,8) --> 233,
(7,9) --> 438,
(7,10) --> 254,
(7,11) --> 202,
(7,12) --> 439,
(7,13) --> 235,
(7,14) --> 254,
(7,15) --> 210,
(7,16) --> 187,
(7,17) --> 313,
(7,18) --> 266,
(7,19) --> 154,
(7,20) --> 282,
(7,21) --> 321,
(7,22) --> 298,
(7,23) --> 168,
(7,24) --> 249,
(7,25) --> 95,
(7,26) --> 437,
(7,27) --> 190,
(7,28) --> 314,
(7,29) --> 435,
(8,1) --> 76,
(8,2) --> 183,
(8,3) --> 317,
(8,4) --> 192,
(8,5) --> 202,
(8,6) --> 141,
(8,7) --> 233,
(8,8) --> 0,
(8,9) --> 213,
(8,10) --> 188,
(8,11) --> 272,
(8,12) --> 193,
(8,13) --> 131,
(8,14) --> 302,
(8,15) --> 233,
(8,16) --> 98,
(8,17) --> 344,
(8,18) --> 289,
(8,19) --> 177,
(8,20) --> 216,
(8,21) --> 141,
(8,22) --> 346,
(8,23) --> 108,
(8,24) --> 57,
(8,25) --> 190,
(8,26) --> 245,
(8,27) --> 43,
(8,28) --> 81,
(8,29) --> 243,
(9,1) --> 152,
(9,2) --> 134,
(9,3) --> 217,
(9,4) --> 248,
(9,5) --> 46,
(9,6) --> 72,
(9,7) --> 438,
(9,8) --> 213,
(9,9) --> 0,
(9,10) --> 206,
(9,11) --> 365,
(9,12) --> 89,
(9,13) --> 209,
(9,14) --> 368,
(9,15) --> 286,
(9,16) --> 278,
(9,17) --> 360,
(9,18) --> 333,
(9,19) --> 284,
(9,20) --> 201,
(9,21) --> 111,
(9,22) --> 412,
(9,23) --> 321,
(9,24) --> 221,
(9,25) --> 353,
(9,26) --> 72,
(9,27) --> 266,
(9,28) --> 132,
(9,29) --> 111,
(10,1) --> 157,
(10,2) --> 95,
(10,3) --> 232,
(10,4) --> 42,
(10,5) --> 160,
(10,6) --> 167,
(10,7) --> 254,
(10,8) --> 188,
(10,9) --> 206,
(10,10) --> 0,
(10,11) --> 159,
(10,12) --> 220,
(10,13) --> 57,
(10,14) --> 149,
(10,15) --> 80,
(10,16) --> 132,
(10,17) --> 193,
(10,18) --> 127,
(10,19) --> 100,
(10,20) --> 28,
(10,21) --> 95,
(10,22) --> 193,
(10,23) --> 241,
(10,24) --> 131,
(10,25) --> 169,
(10,26) --> 200,
(10,27) --> 161,
(10,28) --> 189,
(10,29) --> 163,
(11,1) --> 283,
(11,2) --> 254,
(11,3) --> 491,
(11,4) --> 117,
(11,5) --> 319,
(11,6) --> 351,
(11,7) --> 202,
(11,8) --> 272,
(11,9) --> 365,
(11,10) --> 159,
(11,11) --> 0,
(11,12) --> 404,
(11,13) --> 176,
(11,14) --> 106,
(11,15) --> 79,
(11,16) --> 161,
(11,17) --> 165,
(11,18) --> 141,
(11,19) --> 95,
(11,20) --> 187,
(11,21) --> 254,
(11,22) --> 103,
(11,23) --> 279,
(11,24) --> 215,
(11,25) --> 117,
(11,26) --> 359,
(11,27) --> 216,
(11,28) --> 308,
(11,29) --> 322,
(12,1) --> 133,
(12,2) --> 180,
(12,3) --> 312,
(12,4) --> 287,
(12,5) --> 112,
(12,6) --> 55,
(12,7) --> 439,
(12,8) --> 193,
(12,9) --> 89,
(12,10) --> 220,
(12,11) --> 404,
(12,12) --> 0,
(12,13) --> 210,
(12,14) --> 384,
(12,15) --> 325,
(12,16) --> 279,
(12,17) --> 415,
(12,18) --> 349,
(12,19) --> 285,
(12,20) --> 217,
(12,21) --> 138,
(12,22) --> 428,
(12,23) --> 310,
(12,24) --> 200,
(12,25) --> 354,
(12,26) --> 169,
(12,27) --> 241,
(12,28) --> 112,
(12,29) --> 238,
(13,1) --> 113,
(13,2) --> 101,
(13,3) --> 280,
(13,4) --> 79,
(13,5) --> 163,
(13,6) --> 157,
(13,7) --> 235,
(13,8) --> 131,
(13,9) --> 209,
(13,10) --> 57,
(13,11) --> 176,
(13,12) --> 210,
(13,13) --> 0,
(13,14) --> 186,
(13,15) --> 117,
(13,16) --> 75,
(13,17) --> 231,
(13,18) --> 165,
(13,19) --> 81,
(13,20) --> 85,
(13,21) --> 92,
(13,22) --> 230,
(13,23) --> 184,
(13,24) --> 74,
(13,25) --> 150,
(13,26) --> 208,
(13,27) --> 104,
(13,28) --> 158,
(13,29) --> 206,
(14,1) --> 297,
(14,2) --> 234,
(14,3) --> 391,
(14,4) --> 107,
(14,5) --> 322,
(14,6) --> 331,
(14,7) --> 254,
(14,8) --> 302,
(14,9) --> 368,
(14,10) --> 149,
(14,11) --> 106,
(14,12) --> 384,
(14,13) --> 186,
(14,14) --> 0,
(14,15) --> 69,
(14,16) --> 191,
(14,17) --> 59,
(14,18) --> 35,
(14,19) --> 125,
(14,20) --> 167,
(14,21) --> 255,
(14,22) --> 44,
(14,23) --> 309,
(14,24) --> 245,
(14,25) --> 169,
(14,26) --> 327,
(14,27) --> 246,
(14,28) --> 335,
(14,29) --> 288,
(15,1) --> 228,
(15,2) --> 175,
(15,3) --> 412,
(15,4) --> 38,
(15,5) --> 240,
(15,6) --> 272,
(15,7) --> 210,
(15,8) --> 233,
(15,9) --> 286,
(15,10) --> 80,
(15,11) --> 79,
(15,12) --> 325,
(15,13) --> 117,
(15,14) --> 69,
(15,15) --> 0,
(15,16) --> 122,
(15,17) --> 122,
(15,18) --> 56,
(15,19) --> 56,
(15,20) --> 108,
(15,21) --> 175,
(15,22) --> 113,
(15,23) --> 240,
(15,24) --> 176,
(15,25) --> 125,
(15,26) --> 280,
(15,27) --> 177,
(15,28) --> 266,
(15,29) --> 243,
(16,1) --> 129,
(16,2) --> 176,
(16,3) --> 349,
(16,4) --> 121,
(16,5) --> 232,
(16,6) --> 226,
(16,7) --> 187,
(16,8) --> 98,
(16,9) --> 278,
(16,10) --> 132,
(16,11) --> 161,
(16,12) --> 279,
(16,13) --> 75,
(16,14) --> 191,
(16,15) --> 122,
(16,16) --> 0,
(16,17) --> 244,
(16,18) --> 178,
(16,19) --> 66,
(16,20) --> 160,
(16,21) --> 161,
(16,22) --> 235,
(16,23) --> 118,
(16,24) --> 62,
(16,25) --> 92,
(16,26) --> 277,
(16,27) --> 55,
(16,28) --> 155,
(16,29) --> 275,
(17,1) --> 348,
(17,2) --> 265,
(17,3) --> 422,
(17,4) --> 152,
(17,5) --> 314,
(17,6) --> 362,
(17,7) --> 313,
(17,8) --> 344,
(17,9) --> 360,
(17,10) --> 193,
(17,11) --> 165,
(17,12) --> 415,
(17,13) --> 231,
(17,14) --> 59,
(17,15) --> 122,
(17,16) --> 244,
(17,17) --> 0,
(17,18) --> 66,
(17,19) --> 178,
(17,20) --> 198,
(17,21) --> 286,
(17,22) --> 77,
(17,23) --> 362,
(17,24) --> 287,
(17,25) --> 228,
(17,26) --> 358,
(17,27) --> 299,
(17,28) --> 380,
(17,29) --> 319,
(18,1) --> 276,
(18,2) --> 199,
(18,3) --> 356,
(18,4) --> 86,
(18,5) --> 287,
(18,6) --> 296,
(18,7) --> 266,
(18,8) --> 289,
(18,9) --> 333,
(18,10) --> 127,
(18,11) --> 141,
(18,12) --> 349,
(18,13) --> 165,
(18,14) --> 35,
(18,15) --> 56,
(18,16) --> 178,
(18,17) --> 66,
(18,18) --> 0,
(18,19) --> 112,
(18,20) --> 132,
(18,21) --> 220,
(18,22) --> 79,
(18,23) --> 296,
(18,24) --> 232,
(18,25) --> 181,
(18,26) --> 292,
(18,27) --> 233,
(18,28) --> 314,
(18,29) --> 253,
(19,1) --> 188,
(19,2) --> 182,
(19,3) --> 355,
(19,4) --> 68,
(19,5) --> 238,
(19,6) --> 232,
(19,7) --> 154,
(19,8) --> 177,
(19,9) --> 284,
(19,10) --> 100,
(19,11) --> 95,
(19,12) --> 285,
(19,13) --> 81,
(19,14) --> 125,
(19,15) --> 56,
(19,16) --> 66,
(19,17) --> 178,
(19,18) --> 112,
(19,19) --> 0,
(19,20) --> 128,
(19,21) --> 167,
(19,22) --> 169,
(19,23) --> 179,
(19,24) --> 120,
(19,25) --> 69,
(19,26) --> 283,
(19,27) --> 121,
(19,28) --> 213,
(19,29) --> 281,
(20,1) --> 150,
(20,2) --> 67,
(20,3) --> 204,
(20,4) --> 70,
(20,5) --> 155,
(20,6) --> 164,
(20,7) --> 282,
(20,8) --> 216,
(20,9) --> 201,
(20,10) --> 28,
(20,11) --> 187,
(20,12) --> 217,
(20,13) --> 85,
(20,14) --> 167,
(20,15) --> 108,
(20,16) --> 160,
(20,17) --> 198,
(20,18) --> 132,
(20,19) --> 128,
(20,20) --> 0,
(20,21) --> 88,
(20,22) --> 211,
(20,23) --> 269,
(20,24) --> 159,
(20,25) --> 197,
(20,26) --> 172,
(20,27) --> 189,
(20,28) --> 182,
(20,29) --> 135,
(21,1) --> 65,
(21,2) --> 42,
(21,3) --> 182,
(21,4) --> 137,
(21,5) --> 65,
(21,6) --> 85,
(21,7) --> 321,
(21,8) --> 141,
(21,9) --> 111,
(21,10) --> 95,
(21,11) --> 254,
(21,12) --> 138,
(21,13) --> 92,
(21,14) --> 255,
(21,15) --> 175,
(21,16) --> 161,
(21,17) --> 286,
(21,18) --> 220,
(21,19) --> 167,
(21,20) --> 88,
(21,21) --> 0,
(21,22) --> 299,
(21,23) --> 229,
(21,24) --> 104,
(21,25) --> 236,
(21,26) --> 110,
(21,27) --> 149,
(21,28) --> 97,
(21,29) --> 108,
(22,1) --> 341,
(22,2) --> 278,
(22,3) --> 435,
(22,4) --> 151,
(22,5) --> 366,
(22,6) --> 375,
(22,7) --> 298,
(22,8) --> 346,
(22,9) --> 412,
(22,10) --> 193,
(22,11) --> 103,
(22,12) --> 428,
(22,13) --> 230,
(22,14) --> 44,
(22,15) --> 113,
(22,16) --> 235,
(22,17) --> 77,
(22,18) --> 79,
(22,19) --> 169,
(22,20) --> 211,
(22,21) --> 299,
(22,22) --> 0,
(22,23) --> 353,
(22,24) --> 289,
(22,25) --> 213,
(22,26) --> 371,
(22,27) --> 290,
(22,28) --> 379,
(22,29) --> 332,
(23,1) --> 184,
(23,2) --> 271,
(23,3) --> 417,
(23,4) --> 239,
(23,5) --> 300,
(23,6) --> 249,
(23,7) --> 168,
(23,8) --> 108,
(23,9) --> 321,
(23,10) --> 241,
(23,11) --> 279,
(23,12) --> 310,
(23,13) --> 184,
(23,14) --> 309,
(23,15) --> 240,
(23,16) --> 118,
(23,17) --> 362,
(23,18) --> 296,
(23,19) --> 179,
(23,20) --> 269,
(23,21) --> 229,
(23,22) --> 353,
(23,23) --> 0,
(23,24) --> 121,
(23,25) --> 162,
(23,26) --> 345,
(23,27) --> 80,
(23,28) --> 189,
(23,29) --> 342,
(24,1) --> 67,
(24,2) --> 146,
(24,3) --> 292,
(24,4) --> 135,
(24,5) --> 175,
(24,6) --> 147,
(24,7) --> 249,
(24,8) --> 57,
(24,9) --> 221,
(24,10) --> 131,
(24,11) --> 215,
(24,12) --> 200,
(24,13) --> 74,
(24,14) --> 245,
(24,15) --> 176,
(24,16) --> 62,
(24,17) --> 287,
(24,18) --> 232,
(24,19) --> 120,
(24,20) --> 159,
(24,21) --> 104,
(24,22) --> 289,
(24,23) --> 121,
(24,24) --> 0,
(24,25) --> 154,
(24,26) --> 220,
(24,27) --> 41,
(24,28) --> 93,
(24,29) --> 218,
(25,1) --> 221,
(25,2) --> 251,
(25,3) --> 424,
(25,4) --> 137,
(25,5) --> 307,
(25,6) --> 301,
(25,7) --> 95,
(25,8) --> 190,
(25,9) --> 353,
(25,10) --> 169,
(25,11) --> 117,
(25,12) --> 354,
(25,13) --> 150,
(25,14) --> 169,
(25,15) --> 125,
(25,16) --> 92,
(25,17) --> 228,
(25,18) --> 181,
(25,19) --> 69,
(25,20) --> 197,
(25,21) --> 236,
(25,22) --> 213,
(25,23) --> 162,
(25,24) --> 154,
(25,25) --> 0,
(25,26) --> 352,
(25,27) --> 147,
(25,28) --> 247,
(25,29) --> 350,
(26,1) --> 169,
(26,2) --> 105,
(26,3) --> 116,
(26,4) --> 242,
(26,5) --> 57,
(26,6) --> 118,
(26,7) --> 437,
(26,8) --> 245,
(26,9) --> 72,
(26,10) --> 200,
(26,11) --> 359,
(26,12) --> 169,
(26,13) --> 208,
(26,14) --> 327,
(26,15) --> 280,
(26,16) --> 277,
(26,17) --> 358,
(26,18) --> 292,
(26,19) --> 283,
(26,20) --> 172,
(26,21) --> 110,
(26,22) --> 371,
(26,23) --> 345,
(26,24) --> 220,
(26,25) --> 352,
(26,26) --> 0,
(26,27) --> 265,
(26,28) --> 178,
(26,29) --> 39,
(27,1) --> 108,
(27,2) --> 191,
(27,3) --> 337,
(27,4) --> 165,
(27,5) --> 220,
(27,6) --> 188,
(27,7) --> 190,
(27,8) --> 43,
(27,9) --> 266,
(27,10) --> 161,
(27,11) --> 216,
(27,12) --> 241,
(27,13) --> 104,
(27,14) --> 246,
(27,15) --> 177,
(27,16) --> 55,
(27,17) --> 299,
(27,18) --> 233,
(27,19) --> 121,
(27,20) --> 189,
(27,21) --> 149,
(27,22) --> 290,
(27,23) --> 80,
(27,24) --> 41,
(27,25) --> 147,
(27,26) --> 265,
(27,27) --> 0,
(27,28) --> 124,
(27,29) --> 263,
(28,1) --> 45,
(28,2) --> 139,
(28,3) --> 273,
(28,4) --> 228,
(28,5) --> 121,
(28,6) --> 60,
(28,7) --> 314,
(28,8) --> 81,
(28,9) --> 132,
(28,10) --> 189,
(28,11) --> 308,
(28,12) --> 112,
(28,13) --> 158,
(28,14) --> 335,
(28,15) --> 266,
(28,16) --> 155,
(28,17) --> 380,
(28,18) --> 314,
(28,19) --> 213,
(28,20) --> 182,
(28,21) --> 97,
(28,22) --> 379,
(28,23) --> 189,
(28,24) --> 93,
(28,25) --> 247,
(28,26) --> 178,
(28,27) --> 124,
(28,28) --> 0,
(28,29) --> 199,
(29,1) --> 167,
(29,2) --> 79,
(29,3) --> 77,
(29,4) --> 205,
(29,5) --> 97,
(29,6) --> 185,
(29,7) --> 435,
(29,8) --> 243,
(29,9) --> 111,
(29,10) --> 163,
(29,11) --> 322,
(29,12) --> 238,
(29,13) --> 206,
(29,14) --> 288,
(29,15) --> 243,
(29,16) --> 275,
(29,17) --> 319,
(29,18) --> 253,
(29,19) --> 281,
(29,20) --> 135,
(29,21) --> 108,
(29,22) --> 332,
(29,23) --> 342,
(29,24) --> 218,
(29,25) --> 350,
(29,26) --> 39,
(29,27) --> 263,
(29,28) --> 199,
(29,29) --> 0)
